13

0	166	264
1	349	105
2	751	150
3	665	461
4	182	519
5	123	127
6	94	378
7	511	304
8	336	377
9	355	221
10	557	125
11	682	326
12	470	497

5	9
9	7
5	8
12	11
2	10
10	8
1	0
0	4
6	8
6	9
4	7
7	3
11	2
3	11
10	1
12	4
7	10
7	12
7	2
